Traveling Salesman Problem/TSP_generados/Aleatorio1620390915_8.tsp
NAME: Aleatorio1620390915_8.tsp
COMMENT: Randomly generated scenario
TYPE: TSP
DIMENSION: 8
EDGE_WEIGHT_TYPE: ATT
NODE_COORD_SECTION
1 47.11 4.58
2 17.29 29.2
3 29.01 31.3
4 3.51 11.47
5 4.51 19.04
6 22.49 45.69
7 36.87 20.16
8 46.92 24.39
