Traveling Salesman Problem/TSP_generados/Aleatorio1620390915_8.opt.tour
NAME: Aleatorio1620390915_8.opt.tour
COMMENT: Optimal solution for Aleatorio1620390915_8 (145.5405169401198)
TYPE: TOUR
DIMENSION: 8
TOUR_SECTION
1 4 5 2 6 3 7 8
-1
EOF
